20 64 149
1 2 1
1 3 4
1 5 3
1 14 2
2 3 4
2 5 3
2 8 5
2 10 4
2 16 1
2 18 5
2 19 3
2 20 5
3 5 3
3 6 4
3 7 1
3 8 1
3 10 4
3 12 3
3 15 4
3 16 4
3 18 1
3 20 5
4 7 5
4 9 4
4 14 2
4 15 1
4 17 3
4 18 3
4 19 1
5 8 2
5 12 2
5 13 4
6 11 2
6 17 1
6 19 1
6 20 5
7 15 4
7 20 4
8 9 5
8 11 4
8 14 1
8 17 5
8 18 4
9 11 3
9 14 5
9 15 1
9 18 4
10 11 5
10 14 1
10 19 2
10 20 2
11 13 2
11 17 3
11 18 1
12 13 4
12 17 2
12 19 3
13 15 3
13 17 3
15 16 5
15 19 5
16 17 5
17 19 2
18 19 5
